graph_generation/data/mip/tcsp/hexagonal_lattice_N_5_task_outside_shortest_path.txt
81 70 1 70 27
1 2 12
1 12 9
2 3 11
3 4 19
3 14 15
5 6 12
5 16 5
6 7 4
7 8 9
7 18 15
8 9 15
9 10 4
9 20 2
10 11 9
11 22 6
12 13 1
13 25 10
14 15 10
15 27 14
16 17 9
17 18 8
17 29 18
18 19 1
19 31 6
20 21 17
21 22 1
22 23 3
23 35 12
24 25 1
24 36 7
25 26 7
26 27 16
26 38 11
27 28 17
28 40 1
29 30 10
30 31 1
31 32 2
32 33 8
32 44 11
33 34 15
34 35 6
34 46 4
36 37 5
37 49 13
38 39 16
39 40 17
39 51 12
40 41 1
41 42 19
41 53 6
42 43 6
43 44 15
44 45 17
45 46 16
45 57 6
46 47 11
47 59 12
48 49 15
48 60 11
49 50 9
50 51 12
51 52 16
52 53 8
52 64 2
53 54 4
54 55 11
54 66 17
55 56 1
56 57 18
56 68 16
58 59 16
58 70 12
60 61 7
61 62 12
62 63 9
63 64 11
64 65 8
66 67 3
68 69 12
69 70 6
3
4
5
6
7
9
14
16
18
20
22
24
31
35
37
42
46
47
49
52
59
61
62
63
64
65
66
